itemID	weight
101	29
102	57
103	17
104	29
105	48
106	47
107	12
108	26
109	45
110	44
111	44
112	55
113	42
114	57
115	29
116	39
117	10
118	22
119	25
120	55
121	50
122	43
123	20
124	12
125	49
126	20
127	47
128	24
129	44
130	56
131	27
132	55
133	53
134	17
135	15
136	56
137	57
138	58
139	20
140	47
